48
120
84	5
83	1
82	2
80	3
79	2
78	2
77	4
75	1
74	3
73	3
72	1
71	1
70	1
69	2
68	2
66	2
65	2
64	1
63	1
62	1
60	1
59	1
58	1
57	3
56	4
55	5
54	2
53	2
50	1
49	1
47	1
46	4
45	3
44	1
42	1
38	3
37	1
36	2
35	1
34	3
32	3
31	1
30	3
29	1
28	4
26	1
25	3
24	3
